%MIP
% number of contracts
cc = 2;
% Teamsizes
sc = [5,10];
% team number
nc = [9,2];
%first team
fc = [1,10];
%last team
lc = [9,11];
% Length of schedule
w = 7;
% number of locations
m = 5;
% number of shift types (without breaks)s
t = 3;
% shift types of locations
SL0 = [1,1,2,2,3,4];
% number of forbidden combinations of length 2
f2 = 3;
% number of forbidden combinations of length 3
f3 =4;
%required minimal length of blocks of work shifts
lw = [4,4];
% permitted maximal length of blocks of work shifts
uw= [7,6];
% min number of consecutive days off
b_min = [1,1];
%max number of consecutive days off
b_max = [2,3];

%temporal requirement Matrix
R = [|20, 20, 15, 15, 10, 10, 0
     |15, 15, 15, 15, 15, 15, 15
     |15, 15, 15, 15, 15, 15, 15
     | 0,  0,  5,  0,  0,  5,  0
     |10, 10, 10, 10, 10,  0,  0 |];

R0 = [|20, 20, 15, 15, 10, 10, 0
     |15, 15, 15, 15, 15, 15, 15
     |15, 15, 15, 15, 15, 15, 15
     | 0,  0,  5,  0,  0,  5,  0
     |10, 10, 10, 10, 10,  0,  0
     | 5, 5, 5, 10, 15, 20, 35|]; 
                               

% first shifttype of forbidden length 2 combination
f2_sh1 = [3,3,2];
%second shifttype of forbidden length 2 combination
f2_sh2 = [1,2,1];
% first shifttype of forbidden length 2 combination
f3_sh1 = [3,3,3,2];
%second shifttype of forbidden length 2 combination
f3_sh2 = [1,2,3,1];
%required minimal length of periods of consecutive shifts of the same type
ls = [|3,3,2
      |3,3,3|];
% permitted maximal length of consecutive shifts of the same type
us = [|5,5,4
      |7,4,5|];